--- Job gams_0064_002_32_04_0.67_05_0.50_0.90_27_problem.txt Start 02/24/21 20:10:53 35.2.0 r33388c4 WEX-WEI x86 64bit/MS Windows
--- Applying:
    C:\Users\MariaSosnovskaya\GAMS35\gmsprmNT.txt
--- GAMS Parameters defined
    Input C:\Users\MariaSosnovskaya\Downloads\WfmGams3\problems\gams_0064_002_32_04_0.67_05_0.50_0.90_27_problem.txt
    ScrDir C:\Users\MariaSosnovskaya\Downloads\WfmGams3\225j\
    SysDir C:\Users\MariaSosnovskaya\GAMS35\
Licensee: GAMS Evaluation License                        S210124/0001AB-GEN
          Sobolev Institute of Mathematics, Discrete Optimization LaDCE1098
          C:\Users\MariaSosnovskaya\GAMS35\gamslice.txt
          Evaluation license: Not for commercial or production use
GAMS 35.2.0   Copyright (C) 1987-2021 GAMS Development. All rights reserved
--- Starting compilation
--- gams_0064_002_32_04_0.67_05_0.50_0.90_27_problem.txt(22) 3 Mb
--- . gams_0064_002_32_04_0.67_05_0.50_0.90_27.inc(6600) 3 Mb
--- gams_0064_002_32_04_0.67_05_0.50_0.90_27_problem.txt(98) 3 Mb
--- Starting execution: elapsed 0:00:00.032
--- gams_0064_002_32_04_0.67_05_0.50_0.90_27_problem.txt(6621) 4 Mb
--- Generating MIP model mymodel
--- gams_0064_002_32_04_0.67_05_0.50_0.90_27_problem.txt(6677) 9 Mb
---   16,769 rows  12,289 columns  56,289 non-zeroes
---   12,288 discrete-columns
--- Executing CPLEX (Solvelink=2): elapsed 0:00:00.153

IBM ILOG CPLEX   35.2.0 r33388c4 Released Jun 02, 2021 WEI x86 64bit/MS Window

--- GAMS/Cplex licensed for continuous and discrete problems.
--- Space for names approximately 0.61 Mb
--- Use option 'names no' to turn use of names off
--- GMO memory 6.31 Mb (peak 6.40 Mb)
--- Dictionary memory 0.00 Mb
--- Cplex 20.1.0.1 link memory 0.43 Mb (peak 1.99 Mb)
--- Starting Cplex

Version identifier: 20.1.0.1 | 2021-04-07 | 3a818710c
CPXPARAM_Advance                                 0
CPXPARAM_Threads                                 1
CPXPARAM_MIP_Display                             4
CPXPARAM_TimeLimit                               3600
CPXPARAM_MIP_Tolerances_AbsMIPGap                0
Generic callback                                 0x50
Tried aggregator 2 times.
MIP Presolve eliminated 8321 rows and 930 columns.
Aggregator did 192 substitutions.
Reduced MIP has 8256 rows, 11168 columns, and 37573 nonzeros.
Reduced MIP has 11168 binaries, 0 generals, 0 SOSs, and 0 indicators.
Presolve time = 0.08 sec. (42.17 ticks)
Probing fixed 920 vars, tightened 0 bounds.
Probing changed sense of 54 constraints.
Probing time = 0.08 sec. (29.59 ticks)
Tried aggregator 16 times.
MIP Presolve eliminated 432 rows and 981 columns.
Aggregator did 432 substitutions.
Reduced MIP has 7392 rows, 9755 columns, and 33087 nonzeros.
Reduced MIP has 9755 binaries, 0 generals, 0 SOSs, and 0 indicators.
Presolve time = 0.64 sec. (315.53 ticks)
Probing time = 0.02 sec. (4.39 ticks)
Tried aggregator 1 time.
Detecting symmetries...
Reduced MIP has 7392 rows, 9755 columns, and 33087 nonzeros.
Reduced MIP has 9755 binaries, 0 generals, 0 SOSs, and 0 indicators.
Presolve time = 0.06 sec. (29.66 ticks)
Probing time = 0.02 sec. (4.39 ticks)
Clique table members: 24297.
MIP emphasis: balance optimality and feasibility.
MIP search method: dynamic search.
Parallel mode: none, using 1 thread.
Tried aggregator 1 time.
No LP presolve or aggregator reductions.
Presolve time = 0.00 sec. (4.30 ticks)
Initializing dual steep norms . . .

Iteration log . . .
Iteration:     1   Dual objective     =          8340.000000
Perturbation started.
Iteration:   101   Dual objective     =          8340.000000
Iteration:   470   Dual objective     =          8339.999872
Iteration:   820   Dual objective     =          8339.999765
Iteration:  1181   Dual objective     =          8339.999644
Iteration:  1548   Dual objective     =          8339.999526
Iteration:  1928   Dual objective     =          8339.999403
Iteration:  2283   Dual objective     =          8339.999316
Iteration:  2612   Dual objective     =          8339.999274
Iteration:  2942   Dual objective     =          8339.999241
Iteration:  3265   Dual objective     =          8339.999210
Iteration:  3595   Dual objective     =          8339.999186
Iteration:  3892   Dual objective     =          8339.999168
Iteration:  4189   Dual objective     =          8339.999152
Iteration:  4464   Dual objective     =          8339.999140
Iteration:  4715   Dual objective     =          8339.999129
Iteration:  4945   Dual objective     =          8339.999119
Iteration:  5176   Dual objective     =          8339.999110
Iteration:  5355   Dual objective     =          8339.999103
Iteration:  5525   Dual objective     =          8339.999097
Iteration:  5666   Dual objective     =          8339.999092
Iteration:  5806   Dual objective     =          8339.999088
Iteration:  5943   Dual objective     =          8339.999085
Iteration:  6079   Dual objective     =          8339.999081
Iteration:  6212   Dual objective     =          8339.999078
Iteration:  6334   Dual objective     =          8339.999076
Iteration:  6466   Dual objective     =          8339.999074
Iteration:  6589   Dual objective     =          8339.999072
Iteration:  6714   Dual objective     =          8339.999071
Iteration:  6826   Dual objective     =          8339.999070
Iteration:  6947   Dual objective     =          8339.999069
Iteration:  7061   Dual objective     =          8339.999069
Removing perturbation.
Root relaxation solution time = 0.81 sec. (473.65 ticks)

        Nodes                                         Cuts/
   Node  Left     Objective  IInf  Best Integer    Best Bound    ItCnt     Gap

      0     0     8340.0000  1437                   8340.0000     7107         
      0     0     8340.0000   206                     Cuts: 4     7204         
      0     0     8340.0000   223                    Cuts: 54     7546         
*     0+    0                         8340.0000     8340.0000             0.00%
Found incumbent of value 8340.000000 after 4.37 sec. (2519.65 ticks)
      0     0        cutoff           8340.0000     8340.0000     7546    0.00%
Elapsed time = 4.37 sec. (2519.65 ticks, tree = 0.01 MB, solutions = 1)

Zero-half cuts applied:  15
Lift and project cuts applied:  6
Gomory fractional cuts applied:  11

Root node processing (before b&c):
  Real time             =    4.37 sec. (2520.20 ticks)
Sequential b&c:
  Real time             =    0.00 sec. (0.00 ticks)
                          ------------
Total (root+branch&cut) =    4.37 sec. (2520.20 ticks)

--- MIP status (101): integer optimal solution.
--- Cplex Time: 4.37sec (det. 2520.24 ticks)

--- Fixing integer variables and solving final LP...

Version identifier: 20.1.0.1 | 2021-04-07 | 3a818710c
CPXPARAM_Advance                                 2
CPXPARAM_Threads                                 1
CPXPARAM_MIP_Display                             4
CPXPARAM_TimeLimit                               3600
CPXPARAM_MIP_Tolerances_AbsMIPGap                0
Tried aggregator 1 time.
LP Presolve eliminated 16769 rows and 12290 columns.
All rows and columns eliminated.
Presolve time = 0.00 sec. (7.09 ticks)

--- Fixed MIP status (1): optimal.
--- Cplex Time: 0.02sec (det. 12.43 ticks)


Proven optimal solution
MIP Solution:         8340.000000    (7546 iterations, 0 nodes)
Final Solve:          8340.000000    (0 iterations)

Best possible:        8340.000000
Absolute gap:            0.000000
Relative gap:            0.000000

--- Reading solution for model mymodel
--- Executing after solve: elapsed 0:00:04.716
--- gams_0064_002_32_04_0.67_05_0.50_0.90_27_problem.txt(6678) 9 Mb--- gams_0064_002_32_04_0.67_05_0.50_0.90_27_problem.txt(6698) 9 Mb
--- Putfile results C:\Users\MariaSosnovskaya\Downloads\WfmGams3\problems\gams_0064_002_32_04_0.67_05_0.50_0.90_27_results.txt
*** Status: Normal completion
--- Job gams_0064_002_32_04_0.67_05_0.50_0.90_27_problem.txt Stop 02/24/21 20:10:57 elapsed 0:00:04.736
